Minimize
obj: 74x_1 + 10x_2 + 70x_3 + 160x_4 + 110x_5 + 24x_6 + 66x_7 + 93x_8 + 31x_9 + 11x_10 + 8x_11 + 56x_12 + 50x_13 + 39x_14 + 12x_15 + 144x_16 + 160x_17 + 88x_18 + 48x_19 + 160x_20 + 74x_21 + 6x_22 + 25x_23 + 39x_24 + 42x_25 + 62x_26 + 56x_27 + 2x_28 + 26x_29 + 88x_30 + 2x_31 + 42x_32 + 70x_33 + 160x_34 + 69x_35 + 74x_36 + 44x_37 + 88x_38 + 160x_39 + 42x_40 + 2x_41 + 18x_42 + 144x_43 + 88x_44 + 160x_45 + 146x_46 + 26x_47 + 2x_48 + 88x_49 + 48x_50 + 44x_51 + 62x_52 + 11x_53 + 62x_54 + 88x_55 + 146x_56 + 2x_57 + 2x_58 + 26x_59 + 76x_60 + 60x_61 + 102x_62 + 66x_63 + 26x_64 + 146x_65 + 24x_66 + 2x_67 + 52x_68 + 18x_69 + 25x_70 + 52x_71 + 18x_72 + 160x_73 + 62x_74 + 62x_75 + 74x_76 + 72x_77 + 72x_78 + 160x_79 + 92x_80 + 88x_81 + 88x_82 + 146x_83 + 24x_84 + 2x_85 + 8x_86 + 18x_87 + 62x_88 + 31x_89 + 6x_90 + 144x_91 + 88x_92 + 18x_93 + 21x_94 + 50x_95 + 18x_96 + 45x_97 + 31x_98 + 21x_99 + 31x_100 + 74x_101 + 72x_102 + 72x_103 + 18x_104 + 88x_105 + 144x_106 + 92x_107 + 160x_108 + 74x_109 + 2x_110 + 45x_111 + 72x_112 + 72x_113 + 88x_114 + 26x_115 + 24x_116 + 18x_117 + 82x_118 + 130x_119 + 50x_120 + 72x_121 + 2x_122 + 76x_123 + 18x_124 + 88x_125 + 24x_126 + 88x_127 + 2x_128 + 72x_129 + 102x_130 + 2x_131 + 69x_132 + 93x_133 + 42x_134 + 31x_135 + 2x_136 + 18x_137 + 60x_138 + 130x_139 + 42x_140 + 62x_141 + 12x_142 + 66x_143 + 26x_144 + 24x_145 + 2x_146 + 26x_147 + 146x_148 + 31x_149 + 146x_150 + 88x_151 + 26x_152 + 24x_153 + 82x_154 + 50x_155 + 62x_156 + 72x_157 + 2x_158 + 72x_159 + 24x_160 + 66x_161 + 10x_162 + 160x_163 + 110x_164 + 74x_165 + 42x_166 + 2x_167 + 74x_168
Subject To
x_169 = 7
x_176 = 1
x_170 = 1
x_171 = 1
x_172 = 1
x_173 = 1
x_174 = 1
x_175 = 1
x_3 - x_33 +  x_1 - x_101 +  x_2 - x_162 = 0
x_5 - x_164 +  x_4 - x_73 = 0
x_7 - x_143 +  x_6 - x_160 +  x_8 - x_133 = 0
x_9 - x_89 - x_173 +  x_10 - x_53 = 0
-x_174 +  x_11 - x_86 +  x_12 - x_27 = 0
x_14 - x_24 +  x_13 - x_155 +  x_15 - x_142 = 0
x_16 - x_91 +  x_17 - x_79 +  x_19 - x_50 +  x_18 - x_44 = 0
x_20 - x_163 +  x_21 - x_36 +  x_22 - x_90 = 0
x_23 - x_70 +  x_24 - x_14 - x_175 = 0
x_26 - x_88 +  x_27 - x_12 +  x_25 - x_140 = 0
x_29 - x_59 +  x_30 - x_127 +  x_28 - x_48 = 0
x_31 - x_167 +  x_33 - x_3 +  x_32 - x_40 = 0
x_35 - x_132 +  x_36 - x_21 +  x_34 - x_108 +  x_37 - x_51 = 0
x_39 - x_45 +  x_38 - x_81 = 0
x_40 - x_32 +  x_41 - x_136 +  x_42 - x_87 = 0
x_43 - x_106 +  x_45 - x_39 +  x_44 - x_18 = 0
x_49 - x_55 +  x_48 - x_28 +  x_47 - x_147 +  x_46 - x_150 = 0
-x_170 +  x_50 - x_19 +  x_51 - x_37 = 0
x_53 - x_10 +  x_54 - x_141 +  x_52 - x_74 = 0
x_55 - x_49 +  x_56 - x_83 +  x_57 - x_128 = 0
x_60 - x_123 +  x_59 - x_29 +  x_58 - x_146 = 0
x_62 - x_130 +  x_61 - x_138 = 0
x_63 - x_161 +  x_64 - x_152 +  x_66 - x_145 +  x_65 - x_148 = 0
x_69 - x_137 +  x_68 - x_71 +  x_67 - x_85 = 0
x_70 - x_23 +  x_72 - x_96 +  x_71 - x_68 = 0
x_74 - x_52 +  x_73 - x_4 +  x_75 - x_156 = 0
x_78 - x_102 +  x_76 - x_168 +  x_77 - x_157 = 0
x_80 - x_107 +  x_79 - x_17 +  x_81 - x_38 = 0
x_83 - x_56 +  x_84 - x_126 +  x_82 - x_151 = 0
x_85 - x_67 +  x_87 - x_42 +  x_86 - x_11 = 0
x_90 - x_22 +  x_89 - x_9 +  x_88 - x_26 = 0
x_92 - x_105 +  x_91 - x_16 +  x_93 - x_117 = 0
x_94 - x_99 +  x_95 - x_120 +  x_96 - x_72 = 0
x_98 - x_149 +  x_97 - x_111 - x_171 = 0
x_99 - x_94 +  x_100 - x_135 - x_172 = 0
x_101 - x_1 +  x_102 - x_78 +  x_103 - x_112 = 0
x_106 - x_43 +  x_104 - x_124 +  x_105 - x_92 = 0
x_107 - x_80 +  x_108 - x_34 +  x_109 - x_165 = 0
x_113 - x_159 +  x_111 - x_97 +  x_112 - x_103 +  x_110 - x_122 = 0
x_115 - x_144 +  x_117 - x_93 +  x_116 - x_153 +  x_114 - x_125 = 0
x_120 - x_95 +  x_119 - x_139 +  x_118 - x_154 = 0
x_121 - x_129 +  x_122 - x_110 +  x_123 - x_60 = 0
x_126 - x_84 +  x_124 - x_104 +  x_125 - x_114 = 0
x_127 - x_30 +  x_128 - x_57 = 0
x_131 - x_158 +  x_129 - x_121 +  x_130 - x_62 = 0
-x_176 +  x_132 - x_35 +  x_133 - x_8 = 0
x_135 - x_100 +  x_136 - x_41 +  x_137 - x_69 +  x_134 - x_166 = 0
x_139 - x_119 +  x_169 +  x_138 - x_61 = 0
x_141 - x_54 +  x_142 - x_15 +  x_140 - x_25 = 0
x_145 - x_66 +  x_144 - x_115 +  x_143 - x_7 = 0
x_147 - x_47 +  x_146 - x_58 +  x_148 - x_65 +  x_149 - x_98 = 0
x_150 - x_46 +  x_152 - x_64 +  x_151 - x_82 +  x_153 - x_116 = 0
x_154 - x_118 +  x_156 - x_75 +  x_155 - x_13 = 0
x_158 - x_131 +  x_159 - x_113 +  x_157 - x_77 = 0
x_160 - x_6 +  x_161 - x_63 +  x_162 - x_2 = 0
x_164 - x_5 +  x_165 - x_109 +  x_163 - x_20 = 0
x_167 - x_31 +  x_168 - x_76 +  x_166 - x_134 = 0
Bounds
x_1 >= 0
x_2 >= 0
x_3 >= 0
x_4 >= 0
x_5 >= 0
x_6 >= 0
x_7 >= 0
x_8 >= 0
x_9 >= 0
x_10 >= 0
x_11 >= 0
x_12 >= 0
x_13 >= 0
x_14 >= 0
x_15 >= 0
x_16 >= 0
x_17 >= 0
x_18 >= 0
x_19 >= 0
x_20 >= 0
x_21 >= 0
x_22 >= 0
x_23 >= 0
x_24 >= 0
x_25 >= 0
x_26 >= 0
x_27 >= 0
x_28 >= 0
x_29 >= 0
x_30 >= 0
x_31 >= 0
x_32 >= 0
x_33 >= 0
x_34 >= 0
x_35 >= 0
x_36 >= 0
x_37 >= 0
x_38 >= 0
x_39 >= 0
x_40 >= 0
x_41 >= 0
x_42 >= 0
x_43 >= 0
x_44 >= 0
x_45 >= 0
x_46 >= 0
x_47 >= 0
x_48 >= 0
x_49 >= 0
x_50 >= 0
x_51 >= 0
x_52 >= 0
x_53 >= 0
x_54 >= 0
x_55 >= 0
x_56 >= 0
x_57 >= 0
x_58 >= 0
x_59 >= 0
x_60 >= 0
x_61 >= 0
x_62 >= 0
x_63 >= 0
x_64 >= 0
x_65 >= 0
x_66 >= 0
x_67 >= 0
x_68 >= 0
x_69 >= 0
x_70 >= 0
x_71 >= 0
x_72 >= 0
x_73 >= 0
x_74 >= 0
x_75 >= 0
x_76 >= 0
x_77 >= 0
x_78 >= 0
x_79 >= 0
x_80 >= 0
x_81 >= 0
x_82 >= 0
x_83 >= 0
x_84 >= 0
x_85 >= 0
x_86 >= 0
x_87 >= 0
x_88 >= 0
x_89 >= 0
x_90 >= 0
x_91 >= 0
x_92 >= 0
x_93 >= 0
x_94 >= 0
x_95 >= 0
x_96 >= 0
x_97 >= 0
x_98 >= 0
x_99 >= 0
x_100 >= 0
x_101 >= 0
x_102 >= 0
x_103 >= 0
x_104 >= 0
x_105 >= 0
x_106 >= 0
x_107 >= 0
x_108 >= 0
x_109 >= 0
x_110 >= 0
x_111 >= 0
x_112 >= 0
x_113 >= 0
x_114 >= 0
x_115 >= 0
x_116 >= 0
x_117 >= 0
x_118 >= 0
x_119 >= 0
x_120 >= 0
x_121 >= 0
x_122 >= 0
x_123 >= 0
x_124 >= 0
x_125 >= 0
x_126 >= 0
x_127 >= 0
x_128 >= 0
x_129 >= 0
x_130 >= 0
x_131 >= 0
x_132 >= 0
x_133 >= 0
x_134 >= 0
x_135 >= 0
x_136 >= 0
x_137 >= 0
x_138 >= 0
x_139 >= 0
x_140 >= 0
x_141 >= 0
x_142 >= 0
x_143 >= 0
x_144 >= 0
x_145 >= 0
x_146 >= 0
x_147 >= 0
x_148 >= 0
x_149 >= 0
x_150 >= 0
x_151 >= 0
x_152 >= 0
x_153 >= 0
x_154 >= 0
x_155 >= 0
x_156 >= 0
x_157 >= 0
x_158 >= 0
x_159 >= 0
x_160 >= 0
x_161 >= 0
x_162 >= 0
x_163 >= 0
x_164 >= 0
x_165 >= 0
x_166 >= 0
x_167 >= 0
x_168 >= 0
x_169 >= 0
x_170 >= 0
x_171 >= 0
x_172 >= 0
x_173 >= 0
x_174 >= 0
x_175 >= 0
x_176 >= 0
General
Binaries
End
